(set-info :smt-lib-version 2.6)
(set-logic LRA)
(set-info :source |
   Monniaux, David; Quantifier Elimination by Lazy Model Enumeration, CAV 2010
|)
(set-info :category "random")
; ./Mjollnir_examples/B6/formula_105.m
(set-info :status sat)
(assert
 (forall ((|v17:0| Real) )(forall ((|v16:1| Real) )(forall ((|v15:2| Real) )(forall ((|v14:3| Real) )(forall ((|v13:4| Real) )(forall ((|v12:5| Real) )(exists ((|v11:6| Real) )(exists ((|v10:7| Real) )(exists ((|v9:8| Real) )(exists ((|v8:9| Real) )(exists ((|v7:10| Real) )(exists ((|v6:11| Real) )(forall ((|v5:12| Real) )(forall ((|v4:13| Real) )(forall ((|v3:14| Real) )(forall ((|v2:15| Real) )(forall ((|v1:16| Real) )(forall ((|v0:17| Real) )(let ((?x34 12))
(let ((?x77 (- 17)))
(let ((?x661 (* ?x77 |v4:13|)))
(let ((?x276 (- 9)))
(let ((?x362 (* ?x276 |v9:8|)))
(let ((?x80 5))
(let ((?x990 (* ?x80 |v12:5|)))
(let ((?x1307 (+ (+ (* (- 8) |v0:17|) (* 16 |v14:3|)) (* (- 12) |v16:1|))))
(let (($x1313 (<= (+ (+ (+ (+ ?x1307 (* 3 |v16:1|)) ?x990) ?x362) ?x661) ?x34)))
(let ((?x61 (- 2)))
(let ((?x38 11))
(let ((?x489 (* ?x38 |v15:2|)))
(let ((?x109 4))
(let ((?x1211 (* ?x109 |v8:9|)))
(let ((?x306 2))
(let ((?x322 (* ?x306 |v16:1|)))
(let ((?x14 (- 1)))
(let ((?x1181 (* ?x14 |v8:9|)))
(let ((?x24 13))
(let ((?x635 (* ?x24 |v16:1|)))
(let ((?x1299 (+ (+ (+ (* (- 15) |v3:14|) (* 17 |v17:0|)) ?x635) ?x1181)))
(let ((?x53 (- 14)))
(let ((?x69 (- 7)))
(let ((?x898 (* ?x69 |v3:14|)))
(let ((?x100 9))
(let ((?x1023 (* ?x100 |v11:6|)))
(let ((?x1288 (+ (+ (* 7 |v10:7|) (* (- 11) |v6:11|)) (* 19 |v3:14|))))
(let ((?x1294 (+ (+ (+ (+ ?x1288 ?x1023) (* (- 18) |v4:13|)) ?x898) (* (- 11) |v15:2|))))
(let (($x1314 (and (and (<= ?x1294 ?x53) (<= (+ (+ (+ ?x1299 ?x322) ?x1211) ?x489) ?x61)) $x1313)))
(let ((?x49 (- 19)))
(let ((?x10 (- 13)))
(let ((?x1004 (* ?x10 |v9:8|)))
(let ((?x217 (- 12)))
(let ((?x324 (* ?x217 |v15:2|)))
(let ((?x1277 (+ (+ (+ (* (- 6) |v5:12|) (* 15 |v12:5|)) ?x324) (* ?x109 |v0:17|))))
(let (($x1283 (<= (+ (+ (+ ?x1277 ?x1004) (* ?x49 |v14:3|)) (* (- 15) |v5:12|)) ?x49)))
(let ((?x41 10))
(let ((?x29 (- 8)))
(let ((?x1269 (* ?x29 |v0:17|)))
(let ((?x232 6))
(let ((?x865 (* ?x232 |v5:12|)))
(let ((?x152 16))
(let ((?x153 (* ?x152 |v0:17|)))
(let ((?x1267 (+ (+ (+ (+ |v5:12| (* (- 5) |v13:4|)) (* ?x100 |v10:7|)) ?x153) (* 18 |v10:7|))))
(let ((?x1251 (+ (+ (* ?x69 |v16:1|) (* (- 3) |v2:15|)) (* 17 |v3:14|))))
(let ((?x1257 (+ (+ (+ ?x1251 (* (- 6) |v13:4|)) (* ?x276 |v16:1|)) (* ?x38 |v13:4|))))
(let ((?x50 (* ?x49 |v9:8|)))
(let ((?x1234 (* ?x152 |v14:3|)))
(let ((?x891 (* ?x14 |v13:4|)))
(let ((?x564 (* ?x276 |v6:11|)))
(let ((?x1244 (+ (+ (+ (+ (* ?x29 |v14:3|) (* ?x38 |v10:7|)) (* ?x306 |v10:7|)) ?x564) ?x891)))
(let (($x1261 (or (<= (+ (+ ?x1244 ?x1234) ?x50) ?x14) (<= (+ ?x1257 (* 15 |v4:13|)) ?x29))))
(let ((?x273 (* ?x217 |v6:11|)))
(let ((?x96 (- 4)))
(let ((?x202 (* ?x96 |v12:5|)))
(let ((?x1231 (+ (+ (+ (* (- 16) |v12:5|) (* ?x38 |v0:17|)) (* ?x232 |v7:10|)) (* ?x96 |v9:8|))))
(let ((?x163 18))
(let ((?x147 7))
(let ((?x448 (* ?x147 |v6:11|)))
(let ((?x705 (* ?x69 |v7:10|)))
(let ((?x554 (* ?x276 |v17:0|)))
(let ((?x1136 (* ?x10 |v6:11|)))
(let ((?x1222 (+ (+ (+ (+ (* (- 11) |v10:7|) (* ?x100 |v12:5|)) ?x1211) ?x1136) ?x554)))
(let (($x1237 (and (<= (+ (+ ?x1222 ?x705) ?x448) ?x163) (<= (+ (+ (+ ?x1231 ?x202) ?x273) ?x1234) ?x232))))
(let ((?x260 (- 11)))
(let ((?x1212 (+ (+ (+ (+ (* ?x34 |v14:3|) ?x448) (* ?x29 |v11:6|)) (* ?x29 |v2:15|)) ?x1211)))
(let ((?x121 20))
(let ((?x681 (* ?x121 |v1:16|)))
(let ((?x704 (* ?x14 |v14:3|)))
(let ((?x757 (* ?x24 |v10:7|)))
(let ((?x1200 (+ (+ (* (- 20) |v15:2|) (* 14 |v16:1|)) (* (- 10) |v1:16|))))
(let (($x1206 (<= (+ (+ (+ (+ ?x1200 ?x757) ?x704) (* 15 |v5:12|)) ?x681) ?x152)))
(let (($x1218 (and $x1206 (<= (+ (+ ?x1212 (* ?x217 |v17:0|)) (* (- 10) |v2:15|)) ?x260))))
(let ((?x935 (* ?x38 |v7:10|)))
(let ((?x15 (* ?x14 |v4:13|)))
(let ((?x1189 (+ (+ (+ (+ ?x564 (* (- 16) |v15:2|)) (* ?x100 |v3:14|)) ?x15) ?x935)))
(let ((?x106 17))
(let ((?x893 (* ?x100 |v5:12|)))
(let ((?x160 (* ?x147 |v16:1|)))
(let ((?x307 (* ?x306 |v9:8|)))
(let ((?x909 (* ?x38 |v6:11|)))
(let ((?x1179 (+ (+ (+ (* (- 18) |v11:6|) (* 19 |v17:0|)) ?x909) ?x307)))
(let (($x1195 (and (<= (+ (+ (+ ?x1179 ?x160) ?x1181) ?x893) ?x106) (<= (+ (+ ?x1189 (* ?x29 |v5:12|)) (* (- 16) |v6:11|)) ?x217))))
(let ((?x946 (* ?x53 |v0:17|)))
(let ((?x1168 (+ (+ (+ (* ?x109 |v13:4|) (* ?x163 |v1:16|)) (* 14 |v3:14|)) ?x946)))
(let ((?x1174 (+ (+ (+ ?x1168 (* 19 |v13:4|)) (* (- 15) |v15:2|)) (* (- 20) |v1:16|))))
(let ((?x1063 (* ?x152 |v15:2|)))
(let ((?x867 (* ?x147 |v2:15|)))
(let ((?x1158 (+ (+ (+ (* (- 5) |v2:15|) (* (- 10) |v14:3|)) ?x867) (* ?x163 |v5:12|))))
(let (($x1176 (and (<= (+ (+ (+ ?x1158 ?x448) ?x1063) (* (- 5) |v16:1|)) ?x217) (<= ?x1174 ?x152))))
(let (($x1316 (or (and (and $x1176 $x1195) (and $x1218 $x1237)) (and (and $x1261 (and (<= (+ (+ ?x1267 ?x865) ?x1269) ?x41) $x1283)) $x1314))))
(let ((?x141 19))
(let ((?x485 (* ?x29 |v8:9|)))
(let ((?x1143 (+ (+ (+ (* ?x53 |v4:13|) (* 3 |v12:5|)) (* ?x24 |v11:6|)) ?x485)))
(let ((?x19 0))
(let ((?x1138 (* ?x260 |v10:7|)))
(let ((?x1135 (+ (+ (+ (+ (* ?x152 |v16:1|) (* (- 3) |v10:7|)) ?x362) |v13:4|) (* ?x232 |v17:0|))))
(let (($x1150 (or (<= (+ (+ ?x1135 ?x1136) ?x1138) ?x19) (<= (+ (+ (+ ?x1143 ?x160) (* ?x163 |v8:9|)) (* ?x69 |v5:12|)) ?x141))))
(let ((?x91 (- 20)))
(let ((?x742 (* ?x77 |v6:11|)))
(let ((?x972 (* ?x69 |v8:9|)))
(let ((?x1123 (+ (+ (+ (* (- 16) |v17:0|) (* ?x96 |v5:12|)) (* ?x217 |v11:6|)) (* ?x29 |v4:13|))))
(let ((?x755 (* ?x276 |v1:16|)))
(let ((?x128 (- 18)))
(let ((?x1113 (* ?x128 |v11:6|)))
(let ((?x192 (- 10)))
(let ((?x861 (* ?x192 |v6:11|)))
(let ((?x1112 (+ (+ (+ (* ?x306 |v10:7|) (* (- 5) |v7:10|)) (* ?x260 |v6:11|)) ?x861)))
(let (($x1129 (or (<= (+ (+ (+ ?x1112 ?x1113) ?x755) (* ?x109 |v3:14|)) ?x217) (<= (+ (+ (+ ?x1123 ?x972) ?x742) (* ?x10 |v16:1|)) ?x91))))
(let ((?x137 (- 15)))
(let ((?x1061 (* ?x137 |v11:6|)))
(let ((?x223 (- 5)))
(let ((?x918 (* ?x223 |v9:8|)))
(let ((?x1103 (+ (+ (+ (* (- 6) |v16:1|) (* ?x147 |v10:7|)) (* ?x217 |v9:8|)) (* ?x260 |v13:4|))))
(let (($x1152 (or (<= (+ (+ (+ ?x1103 ?x918) (* ?x100 |v13:4|)) ?x1061) ?x260) (or $x1129 $x1150))))
(let ((?x57 (- 6)))
(let ((?x1092 (* ?x100 |v10:7|)))
(let ((?x148 (* ?x147 |v7:10|)))
(let ((?x46 (- 16)))
(let ((?x420 (* ?x46 |v2:15|)))
(let ((?x1089 (+ (+ (+ (* ?x19 |v14:3|) (* ?x141 |v12:5|)) (* ?x106 |v13:4|)) (* 14 |v4:13|))))
(let ((?x156 14))
(let ((?x976 (* ?x77 |v7:10|)))
(let ((?x25 (* ?x24 |v17:0|)))
(let ((?x759 (* ?x276 |v11:6|)))
(let ((?x1078 (+ (+ (+ (* ?x156 |v13:4|) (* 8 |v4:13|)) (* ?x69 |v14:3|)) ?x759)))
(let (($x1095 (or (<= (+ (+ (+ ?x1078 (* ?x91 |v17:0|)) ?x25) ?x976) ?x156) (<= (+ (+ (+ ?x1089 ?x420) ?x148) ?x1092) ?x57))))
(let ((?x175 8))
(let ((?x336 (* ?x175 |v17:0|)))
(let ((?x85 (- 3)))
(let ((?x112 (* ?x85 |v1:16|)))
(let ((?x1069 (+ (+ (+ (+ (+ (* ?x163 |v7:10|) ?x1061) ?x1063) (* ?x61 |v4:13|)) ?x112) (* ?x163 |v3:14|))))
(let ((?x400 (* ?x141 |v5:12|)))
(let ((?x1055 (+ (+ (+ (* ?x217 |v13:4|) (* ?x152 |v1:16|)) (* ?x61 |v15:2|)) (* ?x57 |v17:0|))))
(let (($x1072 (or (<= (+ (+ (+ ?x1055 ?x909) (* ?x96 |v10:7|)) ?x400) ?x69) (<= (+ ?x1069 ?x336) ?x57))))
(let ((?x598 (* ?x147 |v11:6|)))
(let ((?x939 (* ?x223 |v10:7|)))
(let ((?x407 (* ?x19 |v1:16|)))
(let ((?x396 (* ?x24 |v15:2|)))
(let ((?x1048 (+ (+ (+ (+ (* ?x156 |v5:12|) (* ?x192 |v8:9|)) (* ?x69 |v17:0|)) ?x396) ?x407)))
(let (($x1317 (or (or (or (<= (+ (+ ?x1048 ?x939) ?x598) ?x61) (and $x1072 $x1095)) $x1152) $x1316)))
(let ((?x437 (* ?x175 |v12:5|)))
(let ((?x1034 (+ (+ (+ (+ |v8:9| (* ?x29 |v10:7|)) (* ?x109 |v7:10|)) (* ?x46 |v5:12|)) (* ?x217 |v7:10|))))
(let ((?x1022 (+ (+ (+ (+ (* ?x24 |v4:13|) (* ?x14 |v10:7|)) ?x946) (* ?x192 |v17:0|)) ?x990)))
(let (($x1039 (and (<= (+ (+ ?x1022 ?x1023) (* ?x276 |v7:10|)) ?x24) (<= (+ (+ ?x1034 (* ?x61 |v6:11|)) ?x437) ?x38))))
(let ((?x72 3))
(let ((?x911 (* ?x72 |v12:5|)))
(let ((?x54 (* ?x53 |v11:6|)))
(let ((?x249 (* ?x175 |v15:2|)))
(let ((?x1010 (+ (+ (+ (+ (* ?x38 |v11:6|) (* ?x137 |v12:5|)) (* ?x192 |v0:17|)) ?x249) ?x54)))
(let ((?x841 (* ?x106 |v8:9|)))
(let ((?x764 (* ?x77 |v2:15|)))
(let ((?x1000 (+ (+ (+ (* 15 |v2:15|) (* ?x77 |v9:8|)) (* ?x121 |v4:13|)) ?x764)))
(let (($x1015 (and (<= (+ (+ (+ ?x1000 ?x841) (* ?x152 |v9:8|)) ?x1004) ?x147) (<= (+ (+ ?x1010 (* ?x156 |v8:9|)) ?x911) ?x147))))
(let ((?x987 (+ (+ (+ (* ?x128 |v10:7|) (* ?x175 |v3:14|)) (* ?x147 |v9:8|)) (* ?x24 |v9:8|))))
(let ((?x863 (* ?x96 |v2:15|)))
(let ((?x977 (+ (+ (+ (+ ?x972 (* ?x41 |v8:9|)) (* ?x57 |v6:11|)) (* ?x57 |v11:6|)) ?x976)))
(let ((?x719 (* ?x49 |v2:15|)))
(let ((?x965 (+ (+ (+ (* ?x91 |v0:17|) (* ?x96 |v13:4|)) (* ?x192 |v14:3|)) (* ?x72 |v4:13|))))
(let (($x981 (and (<= (+ (+ (+ ?x965 (* ?x96 |v7:10|)) ?x719) (* ?x29 |v13:4|)) ?x163) (<= (+ (+ ?x977 ?x863) |v11:6|) ?x77))))
(let (($x995 (or $x981 (<= (+ (+ (+ ?x987 (* ?x100 |v8:9|)) ?x990) (* ?x217 |v0:17|)) ?x77))))
(let ((?x326 (* ?x19 |v12:5|)))
(let ((?x952 (+ (+ (+ (+ (* ?x223 |v1:16|) ?x946) (* ?x100 |v12:5|)) (* ?x192 |v8:9|)) ?x326)))
(let ((?x524 (* ?x141 |v1:16|)))
(let ((?x941 (+ (+ (+ (+ (+ (* ?x152 |v1:16|) ?x935) ?x909) (* ?x152 |v13:4|)) ?x939) ?x524)))
(let (($x957 (or (<= (+ ?x941 (* ?x109 |v9:8|)) ?x24) (<= (+ (+ ?x952 (* ?x49 |v10:7|)) ?x935) ?x85))))
(let ((?x930 (* ?x217 |v13:4|)))
(let ((?x700 (* ?x41 |v7:10|)))
(let ((?x926 (+ (+ (+ (* ?x57 |v3:14|) (* ?x217 |v9:8|)) (* ?x85 |v12:5|)) (* ?x80 |v3:14|))))
(let ((?x916 (* ?x85 |v2:15|)))
(let ((?x917 (+ (+ (+ (+ (+ ?x909 (* ?x34 |v5:12|)) ?x911) ?x700) (* ?x175 |v11:6|)) ?x916)))
(let (($x933 (and (<= (+ ?x917 ?x918) ?x41) (<= (+ (+ (+ ?x926 (* ?x29 |v3:14|)) ?x700) ?x930) ?x306))))
(let ((?x785 (* ?x121 |v13:4|)))
(let ((?x257 (* ?x41 |v0:17|)))
(let ((?x509 (* ?x121 |v6:11|)))
(let ((?x904 (+ (+ (+ (+ (+ (* ?x163 |v6:11|) ?x898) (* ?x53 |v6:11|)) |v13:4|) ?x509) ?x257)))
(let ((?x890 (+ (+ (+ (* ?x72 |v10:7|) (* ?x96 |v17:0|)) (* ?x14 |v17:0|)) (* ?x34 |v6:11|))))
(let (($x907 (or (<= (+ (+ (+ ?x890 ?x891) ?x893) (* ?x14 |v0:17|)) ?x38) (<= (+ ?x904 ?x785) ?x19))))
(let ((?x877 (+ (+ (+ (+ (* ?x100 |v6:11|) ?x322) (* ?x106 |v11:6|)) (* ?x91 |v5:12|)) (* 15 |v11:6|))))
(let ((?x405 (* ?x61 |v7:10|)))
(let ((?x869 (+ (+ (+ (+ (+ (+ (* ?x232 |v14:3|) ?x509) ?x861) ?x863) ?x865) ?x867) ?x405)))
(let (($x883 (or (<= ?x869 ?x232) (<= (+ (+ ?x877 (* ?x69 |v2:15|)) (* ?x10 |v2:15|)) ?x38))))
(let ((?x157 (* ?x156 |v6:11|)))
(let ((?x592 (* ?x19 |v6:11|)))
(let ((?x850 (+ (+ (+ (* ?x85 |v11:6|) (* 15 |v15:2|)) (* ?x163 |v7:10|)) |v9:8|)))
(let ((?x840 (+ (+ (+ (+ (* ?x57 |v6:11|) (* ?x41 |v6:11|)) (* ?x232 |v16:1|)) ?x564) (* ?x77 |v15:2|))))
(let (($x856 (or (<= (+ (+ ?x840 ?x841) (* ?x53 |v9:8|)) ?x46) (<= (+ (+ (+ ?x850 ?x592) (* ?x260 |v2:15|)) ?x157) ?x46))))
(let ((?x343 (* ?x61 |v3:14|)))
(let ((?x830 (+ (+ (+ (+ (+ (* ?x121 |v9:8|) ?x705) ?x764) (* ?x141 |v7:10|)) ?x343) (* ?x80 |v14:3|))))
(let ((?x181 15))
(let ((?x605 (* ?x306 |v11:6|)))
(let ((?x256 (* ?x100 |v14:3|)))
(let ((?x817 (+ (+ (+ (+ (* ?x61 |v16:1|) (* ?x91 |v14:3|)) (* ?x41 |v11:6|)) ?x256) ?x605)))
(let (($x834 (and (<= (+ (+ ?x817 (* ?x41 |v3:14|)) (* ?x128 |v15:2|)) ?x181) (<= (+ ?x830 (* ?x147 |v17:0|)) ?x57))))
(let ((?x806 (* ?x38 |v10:7|)))
(let ((?x803 (+ (+ (+ (+ |v12:5| (* ?x77 |v17:0|)) (* ?x24 |v11:6|)) |v4:13|) (* ?x24 |v13:4|))))
(let ((?x218 (* ?x217 |v14:3|)))
(let ((?x167 (* ?x100 |v16:1|)))
(let ((?x795 (+ (+ (+ (+ (* ?x217 |v1:16|) (* ?x152 |v12:5|)) ?x785) (* ?x109 |v6:11|)) (* ?x306 |v7:10|))))
(let (($x809 (or (<= (+ (+ ?x795 ?x167) ?x218) ?x77) (<= (+ (+ ?x803 (* ?x49 |v5:12|)) ?x806) ?x260))))
(let ((?x483 (* ?x53 |v10:7|)))
(let ((?x170 (* ?x106 |v15:2|)))
(let ((?x786 (+ (+ (+ (+ (+ ?x704 |v8:9|) (* ?x175 |v3:14|)) (* ?x10 |v4:13|)) ?x170) ?x785)))
(let ((?x685 (* ?x34 |v4:13|)))
(let ((?x381 (* ?x77 |v10:7|)))
(let ((?x776 (+ (+ (+ (+ ?x249 ?x685) (* ?x128 |v2:15|)) (* ?x53 |v8:9|)) (* ?x109 |v1:16|))))
(let (($x810 (and (and (<= (+ (+ ?x776 ?x381) ?x685) ?x29) (<= (+ ?x786 ?x483) ?x77)) $x809)))
(let ((?x763 (+ (+ (+ (+ (+ (* ?x49 |v1:16|) ?x755) ?x757) ?x759) ?x448) (* ?x276 |v4:13|))))
(let ((?x751 (* ?x232 |v14:3|)))
(let ((?x748 (+ (+ (+ (+ ?x742 (* ?x57 |v14:3|)) (* ?x276 |v15:2|)) (* ?x57 |v4:13|)) (* ?x80 |v6:11|))))
(let (($x767 (and (<= (+ (+ ?x748 (* ?x260 |v17:0|)) ?x751) ?x34) (<= (+ ?x763 ?x764) ?x121))))
(let ((?x495 (* ?x137 |v16:1|)))
(let ((?x735 (+ (+ (+ (+ (* ?x137 |v1:16|) (* ?x128 |v17:0|)) (* ?x181 |v1:16|)) ?x495) (* ?x24 |v1:16|))))
(let ((?x639 (* ?x260 |v1:16|)))
(let ((?x723 (+ (+ (+ (+ (* ?x137 |v17:0|) (* ?x53 |v7:10|)) ?x719) ?x157) (* ?x106 |v10:7|))))
(let (($x741 (and (<= (+ (+ ?x723 ?x639) (* ?x85 |v4:13|)) ?x137) (<= (+ (+ ?x735 (* ?x232 |v11:6|)) (* ?x34 |v16:1|)) ?x61))))
(let ((?x711 (* ?x77 |v17:0|)))
(let ((?x710 (+ (+ (+ (+ ?x704 ?x705) (* ?x38 |v0:17|)) (* ?x96 |v8:9|)) (* ?x38 |v3:14|))))
(let ((?x289 (* ?x49 |v8:9|)))
(let ((?x696 (+ (+ (+ (* ?x232 |v3:14|) (* ?x91 |v16:1|)) (* ?x53 |v13:4|)) (* ?x232 |v2:15|))))
(let ((?x684 (+ (+ (+ (+ (* ?x77 |v1:16|) (* ?x232 |v1:16|)) (* ?x49 |v3:14|)) ?x681) (* ?x61 |v9:8|))))
(let (($x703 (or (<= (+ (+ ?x684 ?x685) (* ?x53 |v12:5|)) ?x29) (<= (+ (+ (+ ?x696 (* ?x100 |v9:8|)) ?x289) ?x700) ?x80))))
(let (($x769 (and (or $x703 (<= (+ (+ ?x710 ?x711) (* ?x24 |v2:15|)) ?x46)) (or $x741 $x767))))
(let (($x1043 (or (and $x769 (or $x810 (and $x834 $x856))) (or (or (and $x883 $x907) (and $x933 $x957)) (or $x995 (or $x1015 $x1039))))))
(let ((?x347 (* ?x72 |v15:2|)))
(let ((?x662 (* ?x14 |v15:2|)))
(let ((?x668 (+ (+ (+ (+ ?x661 ?x662) (* ?x175 |v0:17|)) (* ?x34 |v2:15|)) (* ?x49 |v15:2|))))
(let ((?x401 (* ?x80 |v4:13|)))
(let ((?x182 (* ?x181 |v9:8|)))
(let ((?x657 (+ (+ (+ (+ (* ?x69 |v12:5|) (* ?x121 |v11:6|)) ?x153) (* ?x175 |v1:16|)) ?x485)))
(let (($x672 (or (<= (+ (+ ?x657 ?x182) ?x401) ?x29) (<= (+ (+ ?x668 ?x662) ?x347) ?x80))))
(let ((?x648 (* ?x38 |v11:6|)))
(let ((?x116 (* ?x14 |v2:15|)))
(let ((?x646 (+ (+ (+ (+ ?x639 (* ?x57 |v15:2|)) (* ?x29 |v2:15|)) (* ?x152 |v13:4|)) (* ?x100 |v15:2|))))
(let ((?x452 (* ?x106 |v7:10|)))
(let ((?x633 (+ (+ (+ (* ?x106 |v2:15|) (* ?x217 |v9:8|)) (* ?x109 |v13:4|)) (* ?x80 |v2:15|))))
(let (($x651 (and (<= (+ (+ (+ ?x633 ?x273) ?x635) ?x452) ?x96) (<= (+ (+ ?x646 ?x116) ?x648) ?x175))))
(let ((?x560 (* ?x306 |v0:17|)))
(let ((?x623 (* ?x175 |v1:16|)))
(let ((?x444 (* ?x49 |v16:1|)))
(let ((?x622 (+ (+ (+ (+ (* ?x41 |v1:16|) (* ?x137 |v0:17|)) ?x153) (* ?x29 |v17:0|)) ?x444)))
(let ((?x608 (* ?x232 |v1:16|)))
(let ((?x609 (+ (+ (+ (+ (* ?x137 |v6:11|) (* ?x96 |v13:4|)) ?x605) (* ?x137 |v6:11|)) ?x608)))
(let (($x627 (and (<= (+ (+ ?x609 (* ?x46 |v9:8|)) (* ?x46 |v1:16|)) 1) (<= (+ (+ ?x622 ?x623) ?x560) ?x46))))
(let ((?x594 (* ?x306 |v10:7|)))
(let ((?x595 (+ (+ (+ (+ (* ?x19 |v13:4|) (* ?x61 |v17:0|)) (* ?x53 |v15:2|)) ?x592) ?x594)))
(let (($x674 (and (or (<= (+ (+ ?x595 (* ?x91 |v13:4|)) ?x598) ?x34) $x627) (and $x651 $x672))))
(let ((?x582 (* ?x53 |v7:10|)))
(let ((?x576 (* ?x41 |v8:9|)))
(let ((?x579 (+ (+ (+ (+ (* ?x109 |v15:2|) (* ?x85 |v8:9|)) (* ?x217 |v5:12|)) ?x576) (* ?x223 |v17:0|))))
(let ((?x567 (+ (+ (+ (+ (+ (* ?x46 |v10:7|) ?x560) (* ?x61 |v11:6|)) ?x420) ?x564) (* ?x223 |v12:5|))))
(let (($x585 (and (<= (+ ?x567 (* ?x156 |v14:3|)) ?x106) (<= (+ (+ ?x579 (* ?x57 |v1:16|)) ?x582) ?x121))))
(let ((?x553 (+ (+ (+ (+ (* ?x49 |v12:5|) (* ?x38 |v0:17|)) (* ?x69 |v0:17|)) |v9:8|) (* ?x147 |v4:13|))))
(let ((?x367 (* ?x306 |v15:2|)))
(let ((?x350 (* ?x24 |v12:5|)))
(let ((?x540 (* ?x61 |v15:2|)))
(let ((?x227 (* ?x106 |v6:11|)))
(let ((?x541 (+ (+ (+ (+ (* ?x24 |v11:6|) (* ?x141 |v17:0|)) (* ?x192 |v11:6|)) ?x227) ?x540)))
(let ((?x263 (* ?x192 |v0:17|)))
(let ((?x530 (+ (+ (+ (+ (* ?x147 |v15:2|) ?x524) (* ?x147 |v13:4|)) (* ?x10 |v15:2|)) (* ?x223 |v4:13|))))
(let (($x545 (and (<= (+ (+ ?x530 (* ?x24 |v8:9|)) ?x263) ?x29) (<= (+ (+ ?x541 ?x350) ?x367) ?x57))))
(let (($x675 (and (or $x545 (and (<= (+ (+ ?x553 ?x554) (* ?x91 |v9:8|)) ?x175) $x585)) $x674)))
(let ((?x513 (+ (+ (+ (+ (* ?x19 |v0:17|) (* ?x192 |v9:8|)) ?x509) (* ?x10 |v11:6|)) (* ?x147 |v3:14|))))
(let ((?x30 (* ?x29 |v11:6|)))
(let ((?x501 (+ (+ (+ (+ (* ?x41 |v17:0|) ?x495) (* ?x147 |v5:12|)) ?x381) (* ?x10 |v7:10|))))
(let (($x519 (or (<= (+ (+ ?x501 ?x30) (* ?x61 |v5:12|)) ?x72) (<= (+ (+ ?x513 (* ?x72 |v8:9|)) (* ?x100 |v2:15|)) ?x34))))
(let ((?x118 (* ?x57 |v14:3|)))
(let ((?x487 (* ?x121 |v4:13|)))
(let ((?x490 (+ (+ (+ (+ (+ (* ?x260 |v7:10|) (* ?x10 |v3:14|)) ?x483) ?x485) ?x487) ?x489)))
(let ((?x101 (* ?x100 |v6:11|)))
(let ((?x474 (+ (+ (+ (* ?x306 |v6:11|) (* ?x306 |v1:16|)) (* ?x10 |v12:5|)) (* ?x46 |v4:13|))))
(let (($x493 (and (<= (+ (+ (+ ?x474 (* ?x85 |v5:12|)) ?x101) |v16:1|) ?x80) (<= (+ ?x490 ?x118) ?x41))))
(let ((?x461 (* ?x49 |v3:14|)))
(let ((?x459 (+ (+ (+ (* ?x109 |v6:11|) (* ?x14 |v5:12|)) (* ?x232 |v4:13|)) (* ?x276 |v5:12|))))
(let ((?x449 (+ (+ (+ (+ (* ?x109 |v12:5|) (* ?x260 |v0:17|)) ?x444) (* ?x109 |v13:4|)) ?x448)))
(let (($x466 (and (<= (+ (+ ?x449 (* ?x147 |v1:16|)) ?x452) ?x175) (<= (+ (+ (+ ?x459 ?x350) ?x461) (* ?x106 |v4:13|)) ?x80))))
(let ((?x277 (* ?x276 |v0:17|)))
(let ((?x78 (* ?x77 |v14:3|)))
(let ((?x434 (+ (+ (+ (* ?x80 |v9:8|) (* ?x260 |v3:14|)) (* ?x128 |v1:16|)) (* ?x72 |v14:3|))))
(let ((?x426 (* ?x192 |v11:6|)))
(let ((?x424 (* ?x156 |v5:12|)))
(let ((?x423 (+ (+ (+ (+ (* ?x14 |v3:14|) (* ?x147 |v8:9|)) (* ?x53 |v4:13|)) ?x420) (* ?x19 |v5:12|))))
(let (($x440 (and (<= (+ (+ ?x423 ?x424) ?x426) ?x53) (<= (+ (+ (+ ?x434 ?x78) ?x277) ?x437) ?x69))))
(let ((?x409 (* ?x10 |v11:6|)))
(let ((?x411 (+ (+ (+ (+ (+ (+ ?x400 ?x401) (* ?x57 |v15:2|)) ?x405) ?x407) ?x409) ?x324)))
(let ((?x363 (* ?x163 |v15:2|)))
(let ((?x395 (+ (+ (+ (+ (+ ?x116 |v5:12|) (* ?x10 |v4:13|)) ?x336) (* ?x96 |v3:14|)) ?x363)))
(let ((?x384 (+ (+ (+ (+ (* ?x128 |v16:1|) (* ?x10 |v8:9|)) (* ?x46 |v16:1|)) ?x381) (* ?x91 |v7:10|))))
(let (($x399 (and (<= (+ (+ ?x384 ?x307) (* ?x34 |v7:10|)) ?x141) (<= (+ ?x395 ?x396) ?x77))))
(let ((?x209 (* ?x152 |v12:5|)))
(let ((?x371 (+ (+ (+ (+ (+ ?x362 ?x363) (* ?x72 |v1:16|)) ?x367) (* ?x10 |v0:17|)) ?x324)))
(let ((?x355 (* ?x57 |v6:11|)))
(let ((?x356 (+ (+ (+ (+ ?x350 (* ?x141 |v12:5|)) (* ?x29 |v12:5|)) (* ?x276 |v2:15|)) ?x355)))
(let (($x374 (and (<= (+ (+ ?x356 (* ?x10 |v13:4|)) (* ?x69 |v15:2|)) ?x96) (<= (+ ?x371 ?x209) ?x10))))
(let ((?x345 (* ?x163 |v6:11|)))
(let ((?x344 (+ (+ (+ (+ ?x336 (* ?x61 |v11:6|)) (* ?x57 |v11:6|)) (* ?x69 |v6:11|)) ?x343)))
(let (($x414 (or (and (<= (+ (+ ?x344 ?x345) ?x347) ?x53) $x374) (or $x399 (<= ?x411 ?x10)))))
(let ((?x330 (* ?x96 |v5:12|)))
(let ((?x331 (+ (+ (+ (+ (+ (* ?x121 |v10:7|) ?x322) ?x324) ?x326) (* ?x100 |v3:14|)) ?x330)))
(let ((?x311 (+ (+ (+ (+ (* ?x152 |v5:12|) (* ?x34 |v15:2|)) ?x307) (* ?x260 |v3:14|)) ?x277)))
(let ((?x296 (+ (+ (+ (+ ?x289 ?x78) (* ?x34 |v1:16|)) (* ?x137 |v12:5|)) (* ?x38 |v16:1|))))
(let (($x317 (and (<= (+ (+ ?x296 (* ?x260 |v8:9|)) (* ?x156 |v2:15|)) ?x147) (<= (+ (+ ?x311 (* ?x46 |v7:10|)) (* ?x100 |v0:17|)) ?x41))))
(let ((?x285 (* ?x163 |v7:10|)))
(let ((?x283 (* ?x41 |v6:11|)))
(let ((?x281 (* ?x276 |v2:15|)))
(let ((?x284 (+ (+ (+ (+ (+ (* ?x61 |v8:9|) ?x273) ?x277) (* ?x223 |v5:12|)) ?x281) ?x283)))
(let ((?x268 (+ (+ (+ (+ (+ ?x256 ?x257) (* ?x260 |v6:11|)) ?x263) (* ?x61 |v12:5|)) (* ?x77 |v0:17|))))
(let (($x318 (or (or (<= (+ ?x268 (* ?x156 |v0:17|)) ?x156) (<= (+ ?x284 ?x285) ?x260)) $x317)))
(let ((?x246 (+ (+ (+ (* ?x34 |v2:15|) (* ?x137 |v8:9|)) (* ?x106 |v14:3|)) (* ?x80 |v13:4|))))
(let ((?x235 (* ?x85 |v10:7|)))
(let ((?x234 (+ (+ (+ (+ (* ?x223 |v14:3|) (* ?x77 |v3:14|)) ?x227) (* ?x49 |v7:10|)) (* ?x232 |v15:2|))))
(let (($x254 (and (<= (+ (+ ?x234 ?x235) ?x25) ?x69) (<= (+ (+ (+ ?x246 (* ?x106 |v0:17|)) ?x249) (* ?x19 |v11:6|)) ?x72))))
(let ((?x214 (+ (+ (+ (+ (* ?x109 |v10:7|) (* ?x49 |v4:13|)) ?x209) (* ?x141 |v12:5|)) (* ?x175 |v6:11|))))
(let ((?x198 (+ (+ (+ (+ (* ?x46 |v3:14|) |v0:17|) (* ?x192 |v7:10|)) (* ?x19 |v16:1|)) (* ?x128 |v9:8|))))
(let (($x221 (or (<= (+ (+ ?x198 (* ?x69 |v10:7|)) ?x202) ?x141) (<= (+ (+ ?x214 (* ?x72 |v17:0|)) ?x218) ?x217))))
(let ((?x178 (* ?x14 |v5:12|)))
(let ((?x183 (+ (+ (+ (+ (+ |v3:14| ?x170) (* ?x77 |v11:6|)) (* ?x175 |v14:3|)) ?x178) ?x182)))
(let ((?x166 (+ (+ (+ (+ (+ (* ?x10 |v15:2|) ?x153) ?x157) ?x160) (* ?x163 |v14:3|)) |v1:16|)))
(let ((?x144 (* ?x46 |v5:12|)))
(let ((?x138 (* ?x137 |v3:14|)))
(let ((?x143 (+ (+ (+ (+ (* ?x128 |v7:10|) (* ?x128 |v0:17|)) (* ?x34 |v12:5|)) ?x138) (* ?x141 |v9:8|))))
(let (($x188 (and (<= (+ (+ ?x143 ?x144) ?x148) ?x53) (and (<= (+ ?x166 ?x167) ?x100) (<= (+ ?x183 (* ?x49 |v11:6|)) ?x69)))))
(let ((?x117 (+ (+ (+ (+ (* ?x106 |v2:15|) (* ?x109 |v6:11|)) ?x112) (* ?x69 |v11:6|)) ?x116)))
(let ((?x97 (* ?x96 |v8:9|)))
(let ((?x92 (* ?x91 |v15:2|)))
(let ((?x93 (+ (+ (+ (+ ?x78 (* ?x80 |v17:0|)) (* ?x85 |v7:10|)) (* ?x46 |v17:0|)) ?x92)))
(let (($x125 (and (<= (+ (+ ?x93 ?x97) ?x101) ?x46) (<= (+ (+ ?x117 ?x118) (* ?x121 |v5:12|)) ?x77))))
(let ((?x62 (* ?x61 |v17:0|)))
(let ((?x66 (+ (+ (+ (+ (+ (* ?x46 |v3:14|) ?x50) ?x54) (* ?x57 |v4:13|)) ?x62) (* ?x14 |v6:11|))))
(let ((?x35 (* ?x34 |v5:12|)))
(let ((?x36 (+ (+ (+ (+ (+ (* ?x10 |v15:2|) ?x15) (* ?x19 |v9:8|)) ?x25) ?x30) ?x35)))
(let (($x74 (and (<= (+ ?x36 (* ?x38 |v9:8|)) ?x41) (<= (+ ?x66 (* ?x69 |v1:16|)) ?x72))))
(let (($x335 (and (or (or (or $x74 $x125) $x188) (and (and $x221 $x254) $x318)) (<= (+ ?x331 (* ?x152 |v2:15|)) ?x29))))
(or (or $x335 (and (and $x414 (or (or $x440 $x466) (and $x493 $x519))) $x675)) (or $x1043 $x1317))))))))))))))))))))))))))))))))))))))))))))))))))))))))))))))))))))))))))))))))))))))))))))))))))))))))))))))))))))))))))))))))))))))))))))))))))))))))))))))))))))))))))))))))))))))))))))))))))))))))))))))))))))))))))))))))))))))))))))))))))))))))))))))))))))))))))))))))))))))))))))))))))))))))))))))))))))))))))))))))))))))))))))))))
)
)
)
)
)
)
)
)
)
)
)
)
)
)
)
)
)
)
(check-sat)
(exit)

